(declare-fun temp70_1 () (_ BitVec 64))
(declare-fun temp70_2 () (_ BitVec 64))
(declare-fun var73286 () (_ BitVec 64))
(declare-fun k!0 () Bool)
(declare-fun ARGNAME_input_NAMEEND_DIM () (_ BitVec 64))
(declare-fun temp70_4 () (_ BitVec 64))
(declare-fun temp70_3 () (_ BitVec 64))
(declare-fun temp70_5 () (_ BitVec 64))
(declare-fun ARGNAME_input_NAMEEND_NUMELEMENT () (_ BitVec 64))
(declare-fun var73356 () (_ BitVec 64))
(declare-fun temp70_6 () (_ BitVec 64))
(declare-fun temp70_7 () (_ BitVec 64))
(declare-fun var2564898 () (_ BitVec 64))
(declare-fun temp70_8 () (_ BitVec 64))
(declare-fun var2564899 () (_ BitVec 64))
(declare-fun temp70_9 () (_ BitVec 64))
(declare-fun var2892619 () (_ BitVec 64))
(declare-fun temp70_10 () (_ BitVec 64))
(declare-fun var3489324 () (_ BitVec 64))
(declare-fun var3489328 () (_ BitVec 64))
(declare-fun var3489267 () (_ BitVec 64))
(declare-fun var3293094 () (_ BitVec 64))
(declare-fun temp70_11 () (_ BitVec 64))
(declare-fun temp70_13 () (_ BitVec 64))
(declare-fun temp70_12 () (_ BitVec 64))
(declare-fun temp70_15 () (_ BitVec 64))
(declare-fun temp70_14 () (_ BitVec 64))
(declare-fun temp70_16 () (_ BitVec 64))
(declare-fun var5248275 () (_ BitVec 64))
(assert (= temp70_1 #x0000000000000001))
(assert (= var73286
   (ite (bvsgt ARGNAME_input_NAMEEND_DIM temp70_1)
        #x0000000000000001
        #x0000000000000000)))
(assert (= temp70_2 #x0000000000000001))
(assert (= var73286 temp70_2))
(assert (= temp70_4 #x0000000000000007))
(assert (= temp70_3 temp70_4))
(assert (= temp70_5 #x0000000000000000))
(assert (= var73356
   (ite (= ARGNAME_input_NAMEEND_NUMELEMENT temp70_5)
        #x0000000000000001
        #x0000000000000000)))
(assert (= temp70_6 #x0000000000000001))
(assert (= var73356 temp70_6))
(assert (= temp70_7 #x0000000000000001))
(assert (= var2564898 temp70_7))
(assert (= temp70_8 #x0000000000000001))
(assert (= var2564899 temp70_8))
(assert (= temp70_9 #xfffffffffffffffe))
(assert (= var2892619 temp70_9))
(assert (= temp70_10 #x0000000000000001))
(assert (= var3489324 temp70_10))
(assert (= var3489328 var3489324))
(assert (= var3489267 var3489328))
(assert (= var3293094 var3489267))
(assert (= temp70_11 #x0000000000000001))
(assert (= var3293094 temp70_11))
(assert (= temp70_13 #x0000000000000002))
(assert (= temp70_12 temp70_13))
(assert (= temp70_15 #x0000000000000001))
(assert (= temp70_14 temp70_15))
(assert (= temp70_16 #x0000000000000000))
(assert (= var5248275 temp70_16))
(model-add temp70_1 () (_ BitVec 64) #x0000000000000001)
(model-add temp70_2 () (_ BitVec 64) #x0000000000000001)
(model-add var73286 () (_ BitVec 64) #x0000000000000001)
(model-del k!0)
(model-add ARGNAME_input_NAMEEND_DIM
           ()
           (_ BitVec 64)
           (ite (or k!0 (= #x0000000000000001 #x7fffffffffffffff))
                #x0000000000000001
                (bvadd #x0000000000000001 #x0000000000000001)))




